c Created with the Wolfram Language : www.wolfram.com
c 
p edge 100 263
e 1 2
e 1 11
e 7 11
e 4 12
e 5 13
e 13 19
e 11 21
e 5 23
e 16 23
e 20 23
e 4 24
e 6 24
e 5 25
e 9 25
e 13 25
e 7 26
e 5 27
e 23 27
e 5 28
e 9 28
e 18 28
e 26 28
e 27 28
e 9 29
e 3 30
e 18 30
e 3 31
e 8 31
e 11 32
e 28 33
e 28 34
e 31 34
e 24 35
e 34 35
e 4 36
e 10 36
e 19 36
e 33 37
e 26 38
e 31 38
e 37 38
e 16 39
e 13 41
e 24 41
e 21 42
e 34 42
e 35 42
e 3 43
e 5 43
e 6 43
e 7 43
e 42 43
e 12 44
e 43 44
e 35 45
e 37 45
e 15 46
e 19 46
e 40 46
e 43 46
e 5 47
e 16 47
e 18 47
e 22 47
e 45 47
e 3 48
e 16 48
e 25 48
e 26 48
e 31 48
e 36 48
e 37 48
e 42 48
e 3 49
e 5 49
e 16 49
e 30 49
e 33 49
e 36 49
e 22 50
e 7 51
e 12 52
e 16 52
e 20 52
e 39 52
e 49 52
e 19 53
e 23 53
e 4 54
e 26 54
e 32 55
e 37 55
e 43 55
e 8 56
e 37 56
e 40 56
e 46 56
e 12 57
e 13 57
e 14 57
e 23 57
e 30 57
e 50 57
e 1 58
e 21 58
e 36 58
e 40 58
e 3 59
e 25 59
e 38 59
e 51 59
e 1 61
e 13 61
e 49 61
e 25 62
e 57 62
e 3 63
e 44 63
e 56 63
e 5 64
e 40 64
e 55 64
e 63 64
e 26 65
e 33 65
e 36 65
e 37 65
e 59 65
e 64 65
e 14 66
e 25 66
e 30 66
e 55 66
e 24 67
e 40 67
e 24 68
e 26 68
e 51 68
e 3 69
e 10 69
e 47 69
e 7 70
e 8 70
e 39 70
e 59 70
e 12 71
e 54 71
e 6 72
e 46 72
e 52 72
e 59 72
e 66 72
e 25 73
e 55 73
e 24 74
e 28 74
e 60 74
e 66 74
e 72 74
e 11 75
e 14 75
e 15 75
e 46 75
e 65 75
e 11 76
e 13 76
e 32 76
e 39 76
e 66 76
e 1 77
e 5 77
e 12 77
e 61 77
e 3 78
e 13 79
e 39 79
e 56 79
e 58 79
e 78 79
e 12 80
e 31 80
e 47 80
e 48 80
e 69 80
e 19 81
e 41 81
e 80 81
e 60 82
e 13 83
e 28 83
e 29 83
e 28 84
e 44 84
e 1 85
e 27 85
e 53 85
e 78 85
e 13 86
e 43 86
e 50 86
e 56 86
e 64 86
e 65 86
e 48 87
e 67 87
e 25 88
e 45 88
e 52 88
e 64 88
e 77 88
e 84 89
e 29 90
e 54 90
e 61 90
e 74 90
e 89 90
e 6 91
e 28 91
e 46 91
e 65 91
e 66 91
e 4 92
e 43 92
e 45 92
e 66 92
e 11 93
e 31 93
e 73 93
e 77 93
e 7 94
e 27 94
e 56 94
e 91 94
e 36 95
e 3 96
e 17 96
e 42 96
e 49 96
e 10 97
e 21 97
e 22 97
e 26 97
e 38 97
e 40 97
e 46 97
e 71 97
e 47 98
e 56 98
e 61 98
e 13 99
e 17 99
e 53 99
e 58 99
e 64 99
e 72 99
e 77 99
e 78 99
e 85 99
e 7 100
e 8 100
e 38 100
e 93 100
e 97 100
